language Essence 1.3

letting blksize_delta be function(1 --> 5, 2 --> 3, 3 --> 4, 4 --> 4, 5 --> 3, 6 --> 5, 7 --> 4, 8 --> 4, 9 --> 5)
letting maxcars be function(1 --> 10, 2 --> 10, 3 --> 10, 4 --> 10, 5 --> 10, 6 --> 10, 7 --> 10, 8 --> 10, 9 --> 10)
letting n_cars be 263
letting n_classes be 71
letting n_options be 9
letting quantity be
        function(1 --> 3, 2 --> 6, 3 --> 24, 4 --> 14, 5 --> 5, 6 --> 3, 7 --> 3, 8 --> 11, 9 --> 7, 10 --> 3, 11 --> 4,
                 12 --> 3, 13 --> 3, 14 --> 3, 15 --> 3, 16 --> 3, 17 --> 3, 18 --> 3, 19 --> 3, 20 --> 3, 21 --> 3,
                 22 --> 3, 23 --> 3, 24 --> 3, 25 --> 3, 26 --> 3, 27 --> 3, 28 --> 3, 29 --> 3, 30 --> 3, 31 --> 3,
                 32 --> 3, 33 --> 3, 34 --> 3, 35 --> 3, 36 --> 3, 37 --> 3, 38 --> 3, 39 --> 3, 40 --> 3, 41 --> 3,
                 42 --> 3, 43 --> 3, 44 --> 3, 45 --> 3, 46 --> 3, 47 --> 3, 48 --> 3, 49 --> 3, 50 --> 3, 51 --> 3,
                 52 --> 3, 53 --> 3, 54 --> 3, 55 --> 3, 56 --> 3, 57 --> 3, 58 --> 3, 59 --> 3, 60 --> 3, 61 --> 3,
                 62 --> 3, 63 --> 3, 64 --> 3, 65 --> 3, 66 --> 3, 67 --> 3, 68 --> 3, 69 --> 3, 70 --> 3, 71 --> 3)
letting usage be
        relation((1, 1), (1, 4), (1, 5), (1, 8), (1, 9), (2, 5), (2, 8), (3, 1), (3, 4), (3, 5), (3, 7), (4, 1), (4, 2),
                 (4, 4), (4, 5), (4, 7), (4, 9), (5, 4), (5, 5), (5, 7), (5, 9), (6, 1), (6, 2), (6, 3), (6, 4), (6, 6),
                 (7, 1), (7, 2), (7, 5), (7, 7), (7, 8), (8, 4), (8, 7), (9, 2), (9, 3), (9, 4), (9, 6), (10, 1),
                 (10, 5), (11, 1), (11, 5), (11, 7), (11, 8), (11, 9), (12, 1), (12, 2), (12, 3), (12, 5), (12, 7),
                 (12, 8), (12, 9), (13, 1), (13, 5), (13, 7), (13, 8), (13, 9), (14, 2), (14, 3), (14, 4), (14, 5),
                 (14, 8), (14, 9), (15, 1), (15, 4), (15, 7), (16, 1), (16, 2), (16, 3), (16, 4), (16, 6), (17, 2),
                 (17, 4), (17, 5), (17, 7), (18, 1), (18, 3), (18, 4), (18, 5), (18, 9), (19, 1), (19, 3), (19, 6),
                 (20, 4), (20, 5), (21, 4), (21, 5), (21, 6), (22, 1), (22, 3), (22, 6), (22, 9), (23, 4), (23, 5),
                 (23, 6), (23, 7), (23, 9), (24, 1), (24, 2), (24, 6), (24, 9), (25, 8), (26, 5), (26, 6), (26, 7),
                 (27, 1), (27, 4), (27, 6), (27, 7), (28, 3), (28, 8), (29, 2), (29, 3), (29, 4), (29, 5), (29, 9),
                 (30, 5), (30, 7), (30, 8), (31, 5), (31, 6), (31, 7), (32, 5), (32, 6), (32, 7), (33, 1), (33, 5),
                 (33, 6), (33, 8), (34, 3), (34, 6), (34, 7), (34, 9), (35, 1), (35, 3), (35, 6), (35, 7), (36, 1),
                 (36, 4), (37, 1), (37, 5), (37, 9), (38, 2), (38, 7), (39, 2), (39, 3), (39, 7), (40, 1), (40, 3),
                 (40, 4), (40, 7), (41, 2), (41, 4), (41, 5), (41, 7), (41, 8), (41, 9), (42, 1), (42, 3), (42, 4),
                 (42, 6), (42, 8), (43, 4), (44, 3), (45, 4), (45, 9), (46, 3), (46, 7), (46, 8), (46, 9), (47, 1),
                 (47, 2), (47, 4), (47, 5), (47, 7), (48, 1), (48, 3), (48, 5), (48, 6), (48, 7), (48, 8), (49, 1),
                 (49, 5), (49, 8), (50, 1), (50, 4), (50, 9), (51, 1), (51, 2), (51, 3), (51, 4), (51, 7), (52, 1),
                 (52, 4), (52, 5), (52, 8), (52, 9), (53, 2), (53, 3), (53, 4), (54, 1), (54, 5), (54, 9), (55, 3),
                 (55, 5), (55, 8), (56, 1), (56, 5), (56, 6), (56, 7), (57, 2), (57, 5), (57, 8), (58, 1), (58, 3),
                 (58, 4), (58, 6), (58, 8), (58, 9), (59, 3), (59, 5), (59, 9), (60, 2), (60, 3), (60, 4), (60, 5),
                 (60, 6), (60, 8), (60, 9), (61, 2), (61, 3), (61, 4), (62, 1), (62, 2), (62, 3), (62, 7), (62, 8),
                 (63, 1), (63, 2), (63, 3), (63, 7), (63, 8), (63, 9), (64, 1), (64, 4), (64, 5), (64, 6), (64, 9),
                 (65, 2), (65, 9), (66, 2), (66, 3), (66, 4), (66, 6), (66, 7), (66, 9), (67, 1), (67, 2), (67, 4),
                 (67, 6), (67, 9), (68, 1), (68, 3), (68, 5), (68, 7), (68, 8), (68, 9), (69, 3), (69, 4), (69, 7),
                 (69, 8), (69, 9), (70, 1), (70, 2), (70, 3), (70, 5), (70, 6), (70, 7), (70, 9), (71, 1), (71, 2),
                 (71, 3), (71, 4), (71, 5), (71, 6), (71, 7), (71, 8))
$ Visualisation for usage
$  1  1
$  1  4
$  1  5
$  1  8
$  1  9
$  2  5
$  2  8
$  3  1
$  3  4
$  3  5
$  3  7
$  4  1
$  4  2
$  4  4
$  4  5
$  4  7
$  4  9
$  5  4
$  5  5
$  5  7
$  5  9
$  6  1
$  6  2
$  6  3
$  6  4
$  6  6
$  7  1
$  7  2
$  7  5
$  7  7
$  7  8
$  8  4
$  8  7
$  9  2
$  9  3
$  9  4
$  9  6
$ 10  1
$ 10  5
$ 11  1
$ 11  5
$ 11  7
$ 11  8
$ 11  9
$ 12  1
$ 12  2
$ 12  3
$ 12  5
$ 12  7
$ 12  8
$ 12  9
$ 13  1
$ 13  5
$ 13  7
$ 13  8
$ 13  9
$ 14  2
$ 14  3
$ 14  4
$ 14  5
$ 14  8
$ 14  9
$ 15  1
$ 15  4
$ 15  7
$ 16  1
$ 16  2
$ 16  3
$ 16  4
$ 16  6
$ 17  2
$ 17  4
$ 17  5
$ 17  7
$ 18  1
$ 18  3
$ 18  4
$ 18  5
$ 18  9
$ 19  1
$ 19  3
$ 19  6
$ 20  4
$ 20  5
$ 21  4
$ 21  5
$ 21  6
$ 22  1
$ 22  3
$ 22  6
$ 22  9
$ 23  4
$ 23  5
$ 23  6
$ 23  7
$ 23  9
$ 24  1
$ 24  2
$ 24  6
$ 24  9
$ 25  8
$ 26  5
$ 26  6
$ 26  7
$ 27  1
$ 27  4
$ 27  6
$ 27  7
$ 28  3
$ 28  8
$ 29  2
$ 29  3
$ 29  4
$ 29  5
$ 29  9
$ 30  5
$ 30  7
$ 30  8
$ 31  5
$ 31  6
$ 31  7
$ 32  5
$ 32  6
$ 32  7
$ 33  1
$ 33  5
$ 33  6
$ 33  8
$ 34  3
$ 34  6
$ 34  7
$ 34  9
$ 35  1
$ 35  3
$ 35  6
$ 35  7
$ 36  1
$ 36  4
$ 37  1
$ 37  5
$ 37  9
$ 38  2
$ 38  7
$ 39  2
$ 39  3
$ 39  7
$ 40  1
$ 40  3
$ 40  4
$ 40  7
$ 41  2
$ 41  4
$ 41  5
$ 41  7
$ 41  8
$ 41  9
$ 42  1
$ 42  3
$ 42  4
$ 42  6
$ 42  8
$ 43  4
$ 44  3
$ 45  4
$ 45  9
$ 46  3
$ 46  7
$ 46  8
$ 46  9
$ 47  1
$ 47  2
$ 47  4
$ 47  5
$ 47  7
$ 48  1
$ 48  3
$ 48  5
$ 48  6
$ 48  7
$ 48  8
$ 49  1
$ 49  5
$ 49  8
$ 50  1
$ 50  4
$ 50  9
$ 51  1
$ 51  2
$ 51  3
$ 51  4
$ 51  7
$ 52  1
$ 52  4
$ 52  5
$ 52  8
$ 52  9
$ 53  2
$ 53  3
$ 53  4
$ 54  1
$ 54  5
$ 54  9
$ 55  3
$ 55  5
$ 55  8
$ 56  1
$ 56  5
$ 56  6
$ 56  7
$ 57  2
$ 57  5
$ 57  8
$ 58  1
$ 58  3
$ 58  4
$ 58  6
$ 58  8
$ 58  9
$ 59  3
$ 59  5
$ 59  9
$ 60  2
$ 60  3
$ 60  4
$ 60  5
$ 60  6
$ 60  8
$ 60  9
$ 61  2
$ 61  3
$ 61  4
$ 62  1
$ 62  2
$ 62  3
$ 62  7
$ 62  8
$ 63  1
$ 63  2
$ 63  3
$ 63  7
$ 63  8
$ 63  9
$ 64  1
$ 64  4
$ 64  5
$ 64  6
$ 64  9
$ 65  2
$ 65  9
$ 66  2
$ 66  3
$ 66  4
$ 66  6
$ 66  7
$ 66  9
$ 67  1
$ 67  2
$ 67  4
$ 67  6
$ 67  9
$ 68  1
$ 68  3
$ 68  5
$ 68  7
$ 68  8
$ 68  9
$ 69  3
$ 69  4
$ 69  7
$ 69  8
$ 69  9
$ 70  1
$ 70  2
$ 70  3
$ 70  5
$ 70  6
$ 70  7
$ 70  9
$ 71  1
$ 71  2
$ 71  3
$ 71  4
$ 71  5
$ 71  6
$ 71  7
$ 71  8

